NAME : in_house_7_20
TYPE : TSP
DIMENSION : 7
EDGE_WEIGHT_TYPE : EXPLICIT
EDGE_WEIGHT_FORMAT : UPPER_ROW
COMMENT : INVERSION_SHIFT=1
EDGE_WEIGHT_SECTION
26
21
23
2
43
14
29
36
5
46
47
37
43
31
10
36
24
38
46
39
27
